% seed = 0

mint = 25;
% maxt = 147;

nActs = 62;
dur = [0,3,4,3,2,2,2,1,1,4,2,1,2,1,3,1,1,4,3,3,1,1,3,1,4,4,4,2,3,1,2,5,3,4,3,2,2,2,3,3,1,2,2,3,5,2,1,4,2,5,2,2,2,3,1,3,3,2,1,2,3,0];

nSkills = 15;
sreq = [| 0,0,0,0,0,0,0,0,0,0,0,0,0,0,0,
	| 0,0,0,0,0,0,1,0,0,0,0,0,0,0,0,
	| 0,0,0,0,0,0,0,0,3,0,0,0,0,0,0,
	| 0,0,0,0,1,0,0,0,0,0,0,1,0,0,0,
	| 0,0,0,0,0,1,0,1,0,0,0,1,0,0,1,
	| 0,0,0,0,0,0,0,0,1,0,0,0,0,0,0,
	| 0,0,0,0,0,0,0,1,1,0,0,1,0,0,1,
	| 0,0,0,0,0,1,1,0,0,0,0,0,0,0,0,
	| 0,0,0,1,0,0,1,1,2,0,0,0,1,1,0,
	| 0,1,0,0,0,1,0,2,1,0,1,0,0,0,0,
	| 0,0,0,0,0,0,0,1,0,0,0,0,0,1,0,
	| 0,0,0,0,0,0,1,0,2,0,0,0,0,0,0,
	| 0,0,0,0,0,0,0,1,1,1,0,0,0,0,1,
	| 0,0,1,0,0,0,0,0,0,0,0,0,0,0,0,
	| 0,0,0,0,1,0,0,1,1,0,2,2,0,0,0,
	| 0,1,0,0,1,0,0,0,0,0,0,0,0,0,1,
	| 0,0,0,0,0,0,0,0,0,1,0,0,0,0,0,
	| 0,0,0,0,0,0,0,0,1,0,1,0,0,0,0,
	| 1,1,1,1,0,0,1,1,0,0,0,0,0,1,0,
	| 0,0,0,0,1,1,1,0,2,0,1,0,0,0,1,
	| 0,0,0,0,0,0,0,0,1,0,0,0,0,0,1,
	| 0,0,0,0,0,0,0,0,1,0,0,0,0,0,0,
	| 0,0,0,1,1,2,0,0,0,0,0,0,0,0,0,
	| 0,0,0,0,0,0,0,0,0,0,0,0,1,0,0,
	| 0,0,0,0,0,0,0,0,0,0,0,0,0,0,1,
	| 0,0,0,0,1,0,1,0,1,0,0,0,0,0,0,
	| 0,0,0,0,1,1,0,2,1,0,1,0,0,0,1,
	| 0,0,0,0,0,1,0,1,0,1,1,0,0,0,0,
	| 0,0,0,1,1,1,0,0,2,1,0,0,0,0,0,
	| 0,0,0,0,1,1,0,1,1,0,1,2,0,0,0,
	| 0,0,0,0,0,0,1,1,0,0,1,0,0,0,0,
	| 0,0,0,1,0,0,0,0,0,0,1,0,0,0,0,
	| 0,0,0,0,0,1,0,0,0,0,0,1,0,0,0,
	| 0,0,0,0,1,0,1,0,1,0,0,0,0,0,0,
	| 0,1,0,0,0,1,1,1,0,0,2,0,1,0,0,
	| 0,0,0,0,0,2,0,1,1,0,0,0,0,0,0,
	| 0,0,0,0,1,0,0,2,0,2,1,0,0,0,0,
	| 0,1,0,0,0,1,0,0,1,1,1,1,0,0,0,
	| 0,0,0,0,1,3,0,0,0,0,1,0,1,0,0,
	| 0,0,0,0,0,2,0,0,1,0,0,2,0,0,0,
	| 0,0,0,0,0,1,0,1,2,0,0,0,1,0,1,
	| 1,0,0,0,1,0,0,0,0,0,1,1,1,0,0,
	| 0,0,0,1,0,0,0,1,1,0,0,1,1,0,1,
	| 0,1,0,0,0,0,0,1,0,0,0,0,0,0,0,
	| 0,0,0,1,0,1,0,1,1,0,0,0,0,0,1,
	| 0,0,0,0,0,0,0,0,0,0,0,1,0,0,1,
	| 0,0,0,0,0,2,0,1,1,0,1,1,0,0,1,
	| 0,1,0,0,2,0,0,0,1,0,0,1,0,0,1,
	| 0,0,0,0,0,0,0,0,0,0,0,1,0,0,1,
	| 0,1,0,0,0,0,0,0,0,0,0,0,0,0,0,
	| 0,0,1,0,0,0,0,0,0,0,1,0,1,0,1,
	| 0,1,0,1,1,0,0,1,1,0,0,0,0,0,0,
	| 0,0,0,0,0,1,0,0,1,0,0,0,0,0,0,
	| 0,0,0,0,1,1,0,0,1,0,0,1,0,0,0,
	| 0,0,0,0,0,0,0,1,0,0,0,0,0,0,0,
	| 0,0,0,0,1,0,0,0,1,0,0,0,0,0,1,
	| 0,0,0,0,0,0,0,1,0,0,0,0,0,0,0,
	| 0,0,1,0,2,1,0,2,0,0,0,1,0,0,0,
	| 0,0,0,0,0,0,0,0,1,0,2,0,0,0,0,
	| 0,0,0,0,0,2,0,2,0,0,0,0,0,0,0,
	| 0,1,1,0,0,0,0,0,2,0,0,0,0,0,0,
	| 0,0,0,0,0,0,0,0,0,0,0,0,0,0,0, |];

% SumOfsreq = 227;

nResources = 22;
mastery = [| true,true,true,true,true,true,false,false,true,false,false,false,false,false,false,
	| false,false,false,false,false,false,true,true,true,false,false,false,false,false,false,
	| false,false,false,false,false,true,false,false,false,false,false,false,false,false,false,
	| false,false,false,false,false,false,false,false,false,false,false,false,false,false,true,
	| false,false,true,false,false,true,false,false,false,false,false,true,false,false,false,
	| false,true,true,false,false,false,false,false,false,false,false,false,false,false,false,
	| false,false,false,false,false,false,false,false,false,false,false,false,true,true,true,
	| false,false,false,false,false,false,false,false,false,false,true,true,false,false,false,
	| false,true,true,false,true,true,true,true,true,true,true,true,false,false,false,
	| false,false,false,false,false,false,false,false,false,true,true,true,false,false,false,
	| false,false,false,false,false,false,false,false,false,true,true,true,true,true,true,
	| false,false,false,true,true,true,false,false,false,false,false,false,false,false,false,
	| false,false,false,false,false,false,true,true,true,false,false,false,false,false,false,
	| false,false,false,true,true,true,false,false,false,false,false,false,false,false,false,
	| false,false,false,false,false,false,false,true,true,false,false,false,false,false,false,
	| false,false,false,false,false,false,false,true,true,false,false,false,false,false,false,
	| false,false,false,false,false,false,false,false,true,false,false,false,false,false,false,
	| false,false,true,false,true,true,false,false,false,true,true,true,false,false,false,
	| false,false,false,false,false,false,true,true,true,false,false,false,false,false,false,
	| false,false,false,false,false,false,false,false,false,false,true,true,false,false,false,
	| false,false,false,true,true,true,false,true,true,false,true,true,false,false,false,
	| false,false,false,false,false,false,false,false,false,false,false,false,false,false,true, |];

nPrecs = 93;
pred = [1,1,1,2,2,2,3,3,3,4,4,4,5,5,5,6,7,7,7,8,8,8,9,9,10,10,11,11,11,12,13,13,13,14,15,16,16,16,17,17,17,18,19,19,20,20,20,21,22,22,23,24,25,26,27,28,28,29,30,31,32,33,34,34,35,35,36,37,38,39,40,41,42,43,44,45,46,47,48,49,50,51,52,53,53,54,55,56,57,58,59,60,61];
succ = [2,3,4,35,5,22,6,7,40,9,24,8,12,37,38,17,39,31,16,10,14,15,11,32,42,13,19,21,30,13,36,20,48,55,18,33,29,46,57,61,47,25,44,23,26,28,53,38,34,27,28,33,51,46,45,51,29,50,39,59,52,38,43,51,41,58,57,57,45,56,45,56,50,49,52,52,60,48,49,54,60,61,56,58,54,55,59,60,59,61,62,62,62];

nUnrels = 1336;
unpred = [2,2,2,2,2,2,2,2,2,2,2,2,2,2,2,2,2,2,2,2,2,2,2,2,2,2,2,3,3,3,3,3,3,3,3,3,3,3,3,3,3,3,3,3,3,3,3,3,3,3,3,3,3,3,3,3,3,3,3,3,3,4,4,4,4,4,4,4,4,4,4,4,4,4,4,4,4,5,5,5,5,5,5,5,5,5,5,5,5,5,5,5,5,5,5,5,5,5,5,5,5,5,5,5,5,5,5,5,6,6,6,6,6,6,6,6,6,6,6,6,6,6,6,6,6,6,6,6,6,6,6,6,6,6,6,6,6,6,6,6,6,6,6,6,6,6,6,6,6,6,6,6,6,6,7,7,7,7,7,7,7,7,7,7,7,7,7,7,7,7,7,7,7,7,7,7,7,7,7,7,7,7,7,7,7,7,7,7,7,7,7,7,7,7,7,8,8,8,8,8,8,8,8,8,8,8,8,8,8,8,8,8,8,8,8,8,8,8,8,8,8,8,8,9,9,9,9,9,9,9,9,9,9,9,9,9,9,9,9,9,9,9,9,9,9,9,9,9,9,9,9,9,9,9,9,9,9,10,10,10,10,10,10,10,10,10,10,10,10,10,10,10,10,10,10,10,10,10,10,10,10,10,10,10,10,10,10,10,11,11,11,11,11,11,11,11,11,11,11,11,11,11,11,11,11,11,11,11,11,11,11,11,11,11,11,11,11,11,11,11,11,11,12,12,12,12,12,12,12,12,12,12,12,12,12,12,12,12,12,12,12,12,12,12,12,12,12,12,12,12,12,12,13,13,13,13,13,13,13,13,13,13,13,13,13,13,13,13,13,13,13,13,13,13,13,13,13,13,13,13,13,13,14,14,14,14,14,14,14,14,14,14,14,14,14,14,14,14,14,14,14,14,14,14,14,14,14,14,14,14,14,14,14,14,14,14,14,14,14,14,14,14,14,14,14,14,14,15,15,15,15,15,15,15,15,15,15,15,15,15,15,15,15,15,15,15,15,15,15,15,15,15,15,15,15,15,15,15,15,15,15,15,15,15,15,15,15,15,15,16,16,16,16,16,16,16,16,16,16,16,16,16,16,16,16,16,16,16,16,16,16,16,16,16,16,16,16,16,16,16,16,16,16,16,16,17,17,17,17,17,17,17,17,17,17,17,17,17,17,17,17,17,17,17,17,17,17,17,17,17,17,17,17,17,17,17,17,17,17,17,17,18,18,18,18,18,18,18,18,18,18,18,18,18,18,18,18,18,18,18,18,18,18,18,18,18,18,18,18,18,18,18,18,18,18,18,18,18,18,18,18,19,19,19,19,19,19,19,19,19,19,19,19,19,19,19,19,19,19,19,19,19,19,19,19,19,19,19,19,19,19,19,19,20,20,20,20,20,20,20,20,20,20,20,20,20,20,20,20,20,20,20,20,20,20,20,20,20,20,20,20,21,21,21,21,21,21,21,21,21,21,21,21,21,21,21,21,21,21,21,21,21,21,21,21,21,21,21,21,21,21,21,21,21,21,21,22,22,22,22,22,22,22,22,22,22,22,22,22,22,22,22,22,22,22,22,22,22,22,22,22,22,23,23,23,23,23,23,23,23,23,23,23,23,23,23,23,23,23,23,23,23,23,23,23,23,23,23,23,23,23,23,23,23,24,24,24,24,24,24,24,24,24,24,24,24,24,24,24,24,24,24,24,24,24,24,24,24,24,24,24,24,24,24,24,25,25,25,25,25,25,25,25,25,25,25,25,25,25,25,25,25,25,25,25,25,25,25,25,25,25,25,25,25,25,25,25,25,25,26,26,26,26,26,26,26,26,26,26,26,26,26,26,26,26,26,26,26,26,26,26,26,26,26,26,26,26,26,26,26,26,26,27,27,27,27,27,27,27,27,27,27,27,27,27,27,27,27,27,27,27,27,27,27,27,27,27,27,27,27,27,27,28,28,28,28,28,28,28,28,28,28,28,28,28,28,28,28,28,28,28,28,28,28,28,28,28,28,28,28,29,29,29,29,29,29,29,29,29,29,29,29,29,29,29,29,29,29,29,29,29,29,29,29,29,29,29,29,29,29,30,30,30,30,30,30,30,30,30,30,30,30,30,30,30,30,30,30,30,30,30,30,30,30,30,30,30,30,31,31,31,31,31,31,31,31,31,31,31,31,31,31,31,31,31,31,31,31,31,31,31,31,31,31,31,31,31,32,32,32,32,32,32,32,32,32,32,32,32,32,32,32,32,32,32,32,32,32,32,32,32,32,32,33,33,33,33,33,33,33,33,33,33,33,33,33,33,33,33,33,33,33,33,33,33,33,34,34,34,34,34,34,34,34,34,34,34,34,34,34,34,34,34,34,34,34,35,35,35,35,35,35,35,35,35,35,35,35,35,35,35,35,35,35,35,35,35,36,36,36,36,36,36,36,36,36,36,36,36,36,36,36,36,36,36,36,36,36,36,36,37,37,37,37,37,37,37,37,37,37,37,37,37,37,37,37,37,37,37,37,37,37,38,38,38,38,38,38,38,38,38,38,38,38,38,38,38,38,38,38,38,39,39,39,39,39,39,39,39,39,39,39,39,39,39,39,39,39,39,39,39,40,40,40,40,40,40,40,40,40,40,40,40,40,40,40,40,40,41,41,41,41,41,41,41,41,41,41,41,41,41,41,41,41,41,41,42,42,42,42,42,42,42,42,42,42,42,42,42,42,42,42,42,43,43,43,43,43,43,43,43,43,43,43,43,43,43,44,44,44,44,44,44,44,44,44,44,44,44,44,44,45,45,45,45,45,45,45,45,45,45,45,45,45,46,46,46,46,46,46,46,46,46,46,46,46,46,46,47,47,47,47,47,47,47,47,47,48,48,48,48,48,48,48,48,48,49,49,49,49,49,49,49,49,49,50,50,50,50,50,50,50,50,50,50,51,51,51,51,51,51,51,51,51,52,52,52,52,52,52,52,53,53,53,54,54,54,54,54,55,55,55,55,55,56,56,56,56,57,57,57,58,58,59,59,60];
unsucc = [3,4,6,7,8,9,10,11,14,15,16,17,18,19,21,23,24,25,30,31,32,33,39,40,42,44,47,4,5,8,9,10,11,12,13,14,15,18,19,20,21,22,23,24,25,26,27,28,30,32,34,35,36,37,41,42,43,44,51,53,58,5,6,7,12,16,17,22,27,31,34,35,37,40,41,43,47,6,7,8,9,10,11,14,15,16,17,18,19,21,22,23,24,25,27,30,31,32,33,34,35,39,40,41,42,43,44,47,7,8,9,10,11,12,13,14,15,16,18,19,20,21,22,23,24,25,26,27,28,29,30,31,32,33,34,35,36,37,38,39,40,41,42,43,44,45,46,50,51,52,53,56,58,60,8,9,10,11,12,13,14,15,17,18,19,20,21,22,23,24,25,26,27,28,30,32,34,35,36,37,40,41,42,43,44,47,48,49,51,53,54,55,57,58,61,9,11,12,16,17,19,21,22,23,24,27,30,31,32,33,34,35,37,38,39,40,41,43,44,45,47,52,56,10,12,13,14,15,16,17,18,20,22,24,25,26,27,31,33,34,35,36,37,40,41,42,43,46,47,48,49,53,54,55,57,58,59,11,12,14,15,16,17,18,19,21,22,23,24,25,27,30,31,32,33,34,35,37,38,39,40,41,43,44,45,47,52,56,12,13,14,15,16,17,18,20,22,24,25,26,27,31,32,33,34,35,36,37,40,41,42,43,46,47,48,49,53,54,55,57,58,59,14,15,16,17,18,19,21,22,23,24,25,27,30,31,32,33,34,35,37,38,39,40,41,42,43,44,45,47,52,56,14,15,16,17,18,19,21,22,23,24,25,27,30,31,32,33,34,35,37,38,39,40,41,42,43,44,45,47,52,56,15,16,17,18,19,20,21,22,23,24,25,26,27,28,29,30,31,32,33,34,35,36,37,38,39,40,41,42,43,44,45,46,47,48,49,50,51,52,53,54,56,57,58,60,61,16,17,19,20,21,22,23,24,26,27,28,29,30,31,32,33,34,35,36,37,38,39,40,41,42,43,44,45,46,47,48,49,50,52,53,54,55,56,57,58,59,60,17,18,19,20,21,22,23,24,25,26,27,28,30,31,32,34,35,36,37,39,40,41,42,43,44,47,48,49,51,53,54,55,57,58,59,61,18,19,20,21,22,23,24,25,26,27,28,29,30,31,32,33,34,35,36,37,38,39,40,41,42,43,44,45,46,50,51,52,53,56,58,60,19,20,21,22,23,24,26,27,28,29,30,31,32,33,34,35,36,37,38,39,40,41,42,43,44,45,46,47,48,49,50,52,53,54,55,56,57,58,59,60,20,21,22,24,25,26,27,30,31,32,33,34,35,36,37,38,39,40,41,42,43,45,46,47,48,49,53,54,55,57,58,59,21,22,23,24,25,27,30,31,32,33,34,35,36,37,38,39,40,41,42,43,44,45,47,48,49,52,56,57,22,23,24,25,26,27,28,29,30,31,32,33,34,35,36,37,39,40,41,42,43,44,46,47,48,49,50,51,53,54,55,57,58,59,61,23,24,25,26,28,29,30,31,32,33,35,36,37,38,39,40,41,42,44,46,47,48,50,53,57,58,24,25,26,27,30,31,32,33,34,35,36,37,38,39,40,41,42,43,44,45,46,47,48,49,52,53,54,55,56,57,58,59,25,26,27,28,29,30,31,32,34,35,36,37,39,40,41,42,43,44,46,47,48,49,50,51,53,54,55,57,58,59,61,26,27,28,29,30,31,32,33,34,35,36,37,38,39,40,41,42,43,44,45,46,47,48,49,50,52,53,54,55,56,57,58,59,60,27,28,29,30,31,32,33,34,35,36,37,38,39,40,41,42,43,44,45,47,48,49,50,51,52,53,54,55,56,57,58,59,61,28,29,30,31,32,33,34,35,36,37,38,39,40,41,42,43,44,46,47,48,49,50,51,53,54,55,57,58,59,61,30,31,32,33,34,35,36,37,38,39,40,41,42,43,44,45,46,47,48,49,52,53,54,55,56,57,58,59,30,31,32,33,34,35,36,37,38,39,40,41,42,43,44,45,46,47,48,49,51,52,53,54,55,56,57,58,59,61,31,32,33,34,35,36,37,38,40,41,42,43,44,45,46,47,48,49,50,51,52,53,54,55,57,58,59,61,32,33,34,35,36,37,38,39,40,41,42,43,44,45,46,47,48,49,50,51,52,53,54,55,56,57,58,60,61,33,34,35,36,37,38,39,40,41,42,43,44,45,46,47,48,49,50,51,53,54,55,57,58,59,61,34,35,36,37,39,40,41,42,43,44,46,47,48,49,50,51,53,54,55,57,58,59,61,35,36,37,38,39,40,41,42,44,45,46,47,48,50,52,53,56,57,58,60,36,37,38,39,40,42,43,44,45,46,47,48,49,50,51,52,53,54,55,57,59,37,38,39,40,41,42,43,44,45,46,47,48,49,50,51,52,53,54,55,56,58,60,61,38,39,40,41,42,43,44,45,46,47,48,49,50,51,52,53,54,55,56,58,60,61,39,40,41,42,43,44,46,47,48,49,50,51,53,54,55,57,58,59,61,40,41,42,43,44,45,46,47,48,49,50,51,52,53,54,55,57,58,59,61,41,42,43,44,46,47,48,49,50,51,53,54,55,57,58,59,61,42,43,44,45,46,47,48,49,50,51,52,53,54,55,57,58,59,61,43,44,45,46,47,48,49,51,52,53,54,55,56,57,58,59,61,44,45,46,47,48,50,51,52,53,56,57,58,60,61,45,46,47,48,49,50,51,53,54,55,57,58,59,61,46,47,48,49,50,51,53,54,55,57,58,59,61,47,48,49,50,51,52,53,54,55,56,57,58,59,61,50,51,52,53,56,57,58,60,61,50,51,52,53,56,57,58,60,61,50,51,52,53,56,57,58,60,61,51,52,53,54,55,56,57,58,59,61,52,53,54,55,56,57,58,59,60,53,54,55,57,58,59,61,56,57,60,56,57,58,60,61,56,57,58,60,61,57,58,59,61,58,60,61,59,60,60,61,61];

USEFUL_RES = [{},
	{2,9,13,19},
	{1,2,9,13,15,16,17,19,21},
	{1,5,8,9,10,11,12,14,18,20,21},
	{1,2,3,4,5,7,8,9,10,11,12,13,14,15,16,18,19,20,21,22},
	{1,2,9,13,15,16,17,19,21},
	{1,2,4,5,7,8,9,10,11,13,15,16,17,18,19,20,21,22},
	{1,2,3,5,9,12,13,14,18,19,21},
	{1,2,7,9,11,12,13,14,15,16,17,19,21},
	{1,2,3,5,6,8,9,10,11,12,13,14,15,16,17,18,19,20,21},
	{2,7,9,11,13,15,16,19,21},
	{1,2,9,13,15,16,17,19,21},
	{1,2,4,7,9,10,11,13,15,16,17,18,19,21,22},
	{1,5,6,9,18},
	{1,2,5,8,9,10,11,12,13,14,15,16,17,18,19,20,21},
	{1,4,6,7,9,11,12,14,18,21,22},
	{9,10,11,18},
	{1,2,8,9,10,11,13,15,16,17,18,19,20,21},
	{1,2,5,6,7,9,11,12,13,14,15,16,18,19,21},
	{1,2,3,4,5,7,8,9,10,11,12,13,14,15,16,17,18,19,20,21,22},
	{1,2,4,7,9,11,13,15,16,17,19,21,22},
	{1,2,9,13,15,16,17,19,21},
	{1,3,5,9,12,14,18,21},
	{7,11},
	{4,7,11,22},
	{1,2,9,12,13,14,15,16,17,18,19,21},
	{1,2,3,4,5,7,8,9,10,11,12,13,14,15,16,17,18,19,20,21,22},
	{1,2,3,5,8,9,10,11,12,13,14,15,16,18,19,20,21},
	{1,2,3,5,9,10,11,12,13,14,15,16,17,18,19,21},
	{1,2,3,5,8,9,10,11,12,13,14,15,16,17,18,19,20,21},
	{2,8,9,10,11,13,15,16,18,19,20,21},
	{1,8,9,10,11,12,14,18,20,21},
	{1,3,5,8,9,10,11,12,14,18,20,21},
	{1,2,9,12,13,14,15,16,17,18,19,21},
	{1,2,3,5,6,7,8,9,10,11,12,13,14,15,16,18,19,20,21},
	{1,2,3,5,9,12,13,14,15,16,17,18,19,21},
	{1,2,8,9,10,11,12,13,14,15,16,18,19,20,21},
	{1,2,3,5,6,8,9,10,11,12,13,14,15,16,17,18,19,20,21},
	{1,3,5,7,8,9,10,11,12,14,18,20,21},
	{1,2,3,5,8,9,10,11,12,13,14,15,16,17,18,19,20,21},
	{1,2,3,4,5,7,9,11,12,13,14,15,16,17,18,19,21,22},
	{1,5,7,8,9,10,11,12,14,18,20,21},
	{1,2,4,5,7,8,9,10,11,12,13,14,15,16,17,18,19,20,21,22},
	{1,2,6,9,13,15,16,19,21},
	{1,2,3,4,5,7,9,11,12,13,14,15,16,17,18,19,21,22},
	{4,5,7,8,9,10,11,18,20,21,22},
	{1,2,3,4,5,7,8,9,10,11,12,13,14,15,16,17,18,19,20,21,22},
	{1,2,4,5,6,7,8,9,10,11,12,13,14,15,16,17,18,19,20,21,22},
	{4,5,7,8,9,10,11,18,20,21,22},
	{1,6,9},
	{1,4,5,6,7,8,9,10,11,18,20,21,22},
	{1,2,6,9,12,13,14,15,16,17,18,19,21},
	{1,2,3,5,9,12,13,14,15,16,17,18,19,21},
	{1,2,3,5,8,9,10,11,12,13,14,15,16,17,18,19,20,21},
	{2,9,13,15,16,19,21},
	{1,2,4,7,9,11,12,13,14,15,16,17,18,19,21,22},
	{2,9,13,15,16,19,21},
	{1,2,3,5,6,8,9,10,11,12,13,14,15,16,18,19,20,21},
	{1,2,8,9,10,11,13,15,16,17,18,19,20,21},
	{1,2,3,5,9,12,13,14,15,16,18,19,21},
	{1,2,5,6,9,13,15,16,17,18,19,21},
	{}];

POTENTIAL_ACT = [{3,4,5,6,7,8,9,10,12,13,14,15,16,18,19,20,21,22,23,26,27,28,29,30,32,33,34,35,36,37,38,39,40,41,42,43,44,45,47,48,50,51,52,53,54,56,58,59,60,61},
	{2,3,5,6,7,8,9,10,11,12,13,15,18,19,20,21,22,26,27,28,29,30,31,34,35,36,37,38,40,41,43,44,45,47,48,52,53,54,55,56,57,58,59,60,61},
	{5,8,10,20,23,27,28,29,30,33,35,36,38,39,40,41,45,47,53,54,58,60},
	{5,7,13,16,20,21,25,27,41,43,45,46,47,48,49,51,56},
	{4,5,7,8,10,14,15,19,20,23,27,28,29,30,33,35,36,38,39,40,41,42,43,45,46,47,48,49,51,53,54,58,60,61},
	{10,14,16,19,35,38,44,48,50,51,52,58,61},
	{5,7,9,11,13,16,19,20,21,24,25,27,35,39,41,42,43,45,46,47,48,49,51,56},
	{4,5,7,10,15,18,20,27,28,30,31,32,33,35,37,38,39,40,42,43,46,47,48,49,51,54,58,59},
	{2,3,4,5,6,7,8,9,10,11,12,13,14,15,16,17,18,19,20,21,22,23,26,27,28,29,30,31,32,33,34,35,36,37,38,39,40,41,42,43,44,45,46,47,48,49,50,51,52,53,54,55,56,57,58,59,60,61},
	{4,5,7,10,13,15,17,18,20,27,28,29,30,31,32,33,35,37,38,39,40,42,43,46,47,48,49,51,54,58,59},
	{4,5,7,9,10,11,13,15,16,17,18,19,20,21,24,25,27,28,29,30,31,32,33,35,37,38,39,40,41,42,43,45,46,47,48,49,51,54,56,58,59},
	{4,5,8,9,10,15,16,19,20,23,26,27,28,29,30,32,33,34,35,36,37,38,39,40,41,42,43,45,47,48,52,53,54,56,58,60},
	{2,3,5,6,7,8,9,10,11,12,13,15,18,19,20,21,22,26,27,28,29,30,31,34,35,36,37,38,40,41,43,44,45,47,48,52,53,54,55,56,57,58,59,60,61},
	{4,5,8,9,10,15,16,19,20,23,26,27,28,29,30,32,33,34,35,36,37,38,39,40,41,42,43,45,47,48,52,53,54,56,58,60},
	{3,5,6,7,9,10,11,12,13,15,18,19,20,21,22,26,27,28,29,30,31,34,35,36,37,38,40,41,43,44,45,47,48,52,53,54,55,56,57,58,59,60,61},
	{3,5,6,7,9,10,11,12,13,15,18,19,20,21,22,26,27,28,29,30,31,34,35,36,37,38,40,41,43,44,45,47,48,52,53,54,55,56,57,58,59,60,61},
	{3,6,7,9,10,12,13,15,18,20,21,22,26,27,29,30,34,36,38,40,41,43,45,47,48,52,53,54,56,59,61},
	{4,5,7,8,10,13,14,15,16,17,18,19,20,23,26,27,28,29,30,31,32,33,34,35,36,37,38,39,40,41,42,43,45,46,47,48,49,51,52,53,54,56,58,59,60,61},
	{2,3,5,6,7,8,9,10,11,12,13,15,18,19,20,21,22,26,27,28,29,30,31,34,35,36,37,38,40,41,43,44,45,47,48,52,53,54,55,56,57,58,59,60,61},
	{4,5,7,10,15,18,20,27,28,30,31,32,33,35,37,38,39,40,42,43,46,47,48,49,51,54,58,59},
	{3,4,5,6,7,8,9,10,11,12,13,15,16,18,19,20,21,22,23,26,27,28,29,30,31,32,33,34,35,36,37,38,39,40,41,42,43,44,45,46,47,48,49,51,52,53,54,55,56,57,58,59,60,61},
	{5,7,13,16,20,21,25,27,41,43,45,46,47,48,49,51,56}];
